experiment/data/hgs-res/Vrp-Set-B-n45/Vrp-Set-B-n45-hgs/0.hgs1.vrp
NAME : 0
COMMENT : CVRP Instance
TYPE : CVRP
DIMENSION : 45
EDGE_WEIGHT_TYPE : EUC_2D
CAPACITY : 100
NODE_COORD_SECTION
1	53.0	22.0
2	34.0	28.0
3	2.0	5.0
4	40.0	85.0
5	88.0	38.0
6	74.0	20.0
7	82.0	21.0
8	0.0	46.0
9	84.0	31.0
10	11.0	12.0
11	42.0	37.0
12	90.0	44.0
13	85.0	22.0
14	9.0	8.0
15	4.0	51.0
16	3.0	10.0
17	90.0	40.0
18	41.0	33.0
19	10.0	50.0
20	96.0	45.0
21	48.0	90.0
22	87.0	31.0
23	79.0	26.0
24	39.0	32.0
25	0.0	91.0
26	89.0	45.0
27	91.0	46.0
28	3.0	53.0
29	44.0	0.0
30	89.0	41.0
31	40.0	32.0
32	42.0	86.0
33	0.0	13.0
34	97.0	45.0
35	1.0	50.0
36	45.0	94.0
37	36.0	33.0
38	4.0	15.0
39	42.0	88.0
40	42.0	29.0
41	92.0	0.0
42	75.0	26.0
43	78.0	0.0
44	77.0	29.0
45	5.0	47.0
DEMAND_SECTION
1	0
2	1
3	19
4	19
5	22
6	20
7	11
8	2
9	5
10	20
11	22
12	2
13	2
14	11
15	22
16	19
17	3
18	1
19	2
20	16
21	2
22	13
23	7
24	8
25	16
26	14
27	4
28	14
29	7
30	20
31	14
32	7
33	9
34	7
35	5
36	10
37	13
38	25
39	1
40	22
41	9
42	3
43	8
44	10
45	19
DEPOT_SECTION
1
-1
EOF
