experiment/data/hgs-res/Vrp-Set-B-n45/Vrp-Set-B-n45-hgs/0.hgs1.tour
Route #1: 28 13 2 15 32 37 1
Route #2: 42 40 6 12 21 8 22 41 5 39
Route #3: 29 11 25 26 19 33 16 4 43
Route #4: 30 23 24 35 20 38 31 3 10
Route #5: 9 7 34 27 14 44 18 36 17
Cost 753.961
